c "75766.clq"
p edge 203 2992
e 1 17
e 1 18
e 1 19
e 1 20
e 1 21
e 1 22
e 1 23
e 1 24
e 1 25
e 1 26
e 1 27
e 1 28
e 1 29
e 1 30
e 1 31
e 1 33
e 1 35
e 1 36
e 1 38
e 1 43
e 1 50
e 1 53
e 1 64
e 1 69
e 1 73
e 1 79
e 1 82
e 1 86
e 1 88
e 1 89
e 1 93
e 1 96
e 1 99
e 1 106
e 1 108
e 1 113
e 1 114
e 1 116
e 1 120
e 1 141
e 1 148
e 1 154
e 1 156
e 1 160
e 1 178
e 1 196
e 1 200
e 2 17
e 2 18
e 2 34
e 2 39
e 2 42
e 2 51
e 2 67
e 2 71
e 2 74
e 2 95
e 2 106
e 2 189
e 3 17
e 3 18
e 3 19
e 3 20
e 3 22
e 3 23
e 3 28
e 3 30
e 3 31
e 3 32
e 3 34
e 3 35
e 3 37
e 3 40
e 3 41
e 3 45
e 3 46
e 3 54
e 3 55
e 3 57
e 3 58
e 3 60
e 3 63
e 3 64
e 3 66
e 3 68
e 3 71
e 3 72
e 3 90
e 3 91
e 3 94
e 3 98
e 3 99
e 3 101
e 3 106
e 3 120
e 3 122
e 3 139
e 3 141
e 3 143
e 3 158
e 3 159
e 3 160
e 3 167
e 3 180
e 3 181
e 3 191
e 4 17
e 4 18
e 4 19
e 4 20
e 4 21
e 4 22
e 4 23
e 4 24
e 4 25
e 4 26
e 4 28
e 4 30
e 4 32
e 4 37
e 4 40
e 4 43
e 4 48
e 4 50
e 4 52
e 4 54
e 4 55
e 4 64
e 4 73
e 4 83
e 4 89
e 4 90
e 4 105
e 4 117
e 4 129
e 4 135
e 4 136
e 4 143
e 4 146
e 4 149
e 4 150
e 4 161
e 4 166
e 4 168
e 4 182
e 4 187
e 4 193
e 5 17
e 5 19
e 5 20
e 5 21
e 5 24
e 5 27
e 5 30
e 5 50
e 5 54
e 5 55
e 5 59
e 5 68
e 5 82
e 5 89
e 5 92
e 5 105
e 5 122
e 5 137
e 5 180
e 5 195
e 6 17
e 6 18
e 6 19
e 6 20
e 6 21
e 6 22
e 6 24
e 6 25
e 6 26
e 6 28
e 6 29
e 6 35
e 6 38
e 6 41
e 6 43
e 6 46
e 6 47
e 6 49
e 6 51
e 6 57
e 6 61
e 6 65
e 6 70
e 6 75
e 6 77
e 6 88
e 6 97
e 6 114
e 6 129
e 6 133
e 6 152
e 6 156
e 6 160
e 6 187
e 6 191
e 6 201
e 7 17
e 7 18
e 7 19
e 7 20
e 7 22
e 7 23
e 7 24
e 7 25
e 7 26
e 7 27
e 7 28
e 7 34
e 7 40
e 7 41
e 7 42
e 7 43
e 7 46
e 7 47
e 7 61
e 7 62
e 7 64
e 7 68
e 7 69
e 7 76
e 7 77
e 7 78
e 7 80
e 7 84
e 7 87
e 7 91
e 7 96
e 7 97
e 7 105
e 7 108
e 7 128
e 7 132
e 7 139
e 7 148
e 7 149
e 7 151
e 7 159
e 7 163
e 7 166
e 7 171
e 7 178
e 7 180
e 7 185
e 7 192
e 7 202
e 7 203
e 8 17
e 8 18
e 8 19
e 8 20
e 8 21
e 8 22
e 8 23
e 8 25
e 8 26
e 8 27
e 8 28
e 8 29
e 8 30
e 8 34
e 8 41
e 8 45
e 8 46
e 8 47
e 8 53
e 8 54
e 8 56
e 8 59
e 8 62
e 8 64
e 8 71
e 8 76
e 8 80
e 8 92
e 8 94
e 8 98
e 8 103
e 8 114
e 8 122
e 8 145
e 8 149
e 8 150
e 8 161
e 8 179
e 8 180
e 8 192
e 8 194
e 8 203
e 9 17
e 9 18
e 9 19
e 9 20
e 9 21
e 9 22
e 9 23
e 9 24
e 9 27
e 9 28
e 9 30
e 9 32
e 9 35
e 9 39
e 9 41
e 9 42
e 9 44
e 9 49
e 9 50
e 9 51
e 9 52
e 9 57
e 9 60
e 9 63
e 9 64
e 9 67
e 9 75
e 9 77
e 9 80
e 9 87
e 9 93
e 9 97
e 9 98
e 9 100
e 9 101
e 9 111
e 9 126
e 9 143
e 9 144
e 9 161
e 9 166
e 9 171
e 9 176
e 9 177
e 9 191
e 9 199
e 10 17
e 10 18
e 10 19
e 10 21
e 10 22
e 10 23
e 10 24
e 10 28
e 10 29
e 10 30
e 10 36
e 10 37
e 10 38
e 10 45
e 10 46
e 10 47
e 10 48
e 10 53
e 10 58
e 10 59
e 10 63
e 10 65
e 10 71
e 10 74
e 10 75
e 10 77
e 10 78
e 10 85
e 10 86
e 10 107
e 10 110
e 10 115
e 10 119
e 10 124
e 10 128
e 10 131
e 10 143
e 10 144
e 10 145
e 10 148
e 10 158
e 10 168
e 10 179
e 10 182
e 10 187
e 10 199
e 10 200
e 11 17
e 11 18
e 11 19
e 11 23
e 11 31
e 11 35
e 11 52
e 11 58
e 11 61
e 11 79
e 11 94
e 11 108
e 11 139
e 11 150
e 11 151
e 11 153
e 11 177
e 11 203
e 12 17
e 12 18
e 12 19
e 12 20
e 12 21
e 12 22
e 12 23
e 12 26
e 12 27
e 12 28
e 12 29
e 12 31
e 12 32
e 12 33
e 12 34
e 12 42
e 12 43
e 12 49
e 12 59
e 12 63
e 12 65
e 12 70
e 12 74
e 12 90
e 12 98
e 12 103
e 12 104
e 12 106
e 12 112
e 12 123
e 12 129
e 12 137
e 12 138
e 12 186
e 13 17
e 13 18
e 13 19
e 13 20
e 13 21
e 13 22
e 13 25
e 13 30
e 13 31
e 13 34
e 13 45
e 13 46
e 13 54
e 13 56
e 13 63
e 13 64
e 13 70
e 13 81
e 13 82
e 13 84
e 13 85
e 13 90
e 13 104
e 13 107
e 13 112
e 13 119
e 13 130
e 13 147
e 13 148
e 13 153
e 13 167
e 13 178
e 13 183
e 13 185
e 13 187
e 14 17
e 14 18
e 14 19
e 14 20
e 14 21
e 14 22
e 14 25
e 14 29
e 14 31
e 14 33
e 14 35
e 14 39
e 14 40
e 14 41
e 14 42
e 14 46
e 14 47
e 14 48
e 14 49
e 14 51
e 14 55
e 14 56
e 14 58
e 14 60
e 14 62
e 14 69
e 14 83
e 14 89
e 14 96
e 14 111
e 14 117
e 14 118
e 14 128
e 14 130
e 14 134
e 14 137
e 14 138
e 14 149
e 14 152
e 14 157
e 14 171
e 14 180
e 14 181
e 14 184
e 14 187
e 14 189
e 15 17
e 15 18
e 15 20
e 15 21
e 15 23
e 15 24
e 15 25
e 15 41
e 15 68
e 15 87
e 15 113
e 15 115
e 15 142
e 15 182
e 15 198
e 16 17
e 16 18
e 16 19
e 16 20
e 16 21
e 16 23
e 16 24
e 16 25
e 16 26
e 16 28
e 16 31
e 16 34
e 16 35
e 16 36
e 16 38
e 16 39
e 16 41
e 16 43
e 16 44
e 16 48
e 16 49
e 16 52
e 16 54
e 16 60
e 16 76
e 16 83
e 16 87
e 16 91
e 16 92
e 16 94
e 16 98
e 16 104
e 16 116
e 16 125
e 16 126
e 16 151
e 16 161
e 16 164
e 16 177
e 16 201
e 17 18
e 17 19
e 17 20
e 17 21
e 17 22
e 17 23
e 17 24
e 17 25
e 17 26
e 17 27
e 17 28
e 17 29
e 17 30
e 17 31
e 17 32
e 17 33
e 17 35
e 17 36
e 17 38
e 17 39
e 17 40
e 17 42
e 17 44
e 17 46
e 17 47
e 17 48
e 17 50
e 17 53
e 17 56
e 17 60
e 17 65
e 17 67
e 17 78
e 17 82
e 17 88
e 17 89
e 17 91
e 17 92
e 17 96
e 17 103
e 17 113
e 17 115
e 17 117
e 17 120
e 17 126
e 17 127
e 17 128
e 17 133
e 17 136
e 17 140
e 17 144
e 17 153
e 17 159
e 17 160
e 17 164
e 17 167
e 17 168
e 17 169
e 17 178
e 17 184
e 17 188
e 17 194
e 17 197
e 17 198
e 17 200
e 17 201
e 18 19
e 18 20
e 18 21
e 18 22
e 18 23
e 18 24
e 18 25
e 18 26
e 18 27
e 18 28
e 18 29
e 18 30
e 18 32
e 18 33
e 18 36
e 18 37
e 18 39
e 18 40
e 18 42
e 18 45
e 18 46
e 18 48
e 18 49
e 18 50
e 18 54
e 18 57
e 18 61
e 18 62
e 18 67
e 18 69
e 18 72
e 18 75
e 18 76
e 18 79
e 18 80
e 18 82
e 18 83
e 18 84
e 18 90
e 18 91
e 18 98
e 18 108
e 18 109
e 18 110
e 18 111
e 18 112
e 18 116
e 18 122
e 18 123
e 18 124
e 18 127
e 18 129
e 18 131
e 18 133
e 18 136
e 18 137
e 18 146
e 18 156
e 18 159
e 18 163
e 18 164
e 18 171
e 18 179
e 18 184
e 18 186
e 18 189
e 18 199
e 18 200
e 18 202
e 19 20
e 19 21
e 19 22
e 19 24
e 19 25
e 19 26
e 19 27
e 19 28
e 19 29
e 19 30
e 19 31
e 19 32
e 19 33
e 19 34
e 19 35
e 19 36
e 19 37
e 19 38
e 19 39
e 19 40
e 19 41
e 19 42
e 19 44
e 19 49
e 19 50
e 19 52
e 19 53
e 19 55
e 19 56
e 19 58
e 19 59
e 19 60
e 19 63
e 19 64
e 19 66
e 19 67
e 19 70
e 19 71
e 19 73
e 19 74
e 19 75
e 19 80
e 19 81
e 19 85
e 19 89
e 19 91
e 19 95
e 19 97
e 19 99
e 19 102
e 19 109
e 19 114
e 19 121
e 19 125
e 19 126
e 19 129
e 19 130
e 19 131
e 19 132
e 19 133
e 19 139
e 19 140
e 19 142
e 19 145
e 19 146
e 19 151
e 19 154
e 19 159
e 19 162
e 19 163
e 19 165
e 19 167
e 19 168
e 19 170
e 19 171
e 19 173
e 19 174
e 19 175
e 19 176
e 19 177
e 19 181
e 19 184
e 19 185
e 19 192
e 19 201
e 20 21
e 20 22
e 20 23
e 20 24
e 20 25
e 20 26
e 20 27
e 20 29
e 20 30
e 20 31
e 20 32
e 20 35
e 20 37
e 20 38
e 20 39
e 20 40
e 20 41
e 20 46
e 20 47
e 20 48
e 20 51
e 20 52
e 20 54
e 20 55
e 20 57
e 20 59
e 20 61
e 20 66
e 20 69
e 20 70
e 20 73
e 20 75
e 20 76
e 20 79
e 20 81
e 20 82
e 20 85
e 20 86
e 20 88
e 20 90
e 20 96
e 20 99
e 20 103
e 20 110
e 20 111
e 20 114
e 20 116
e 20 117
e 20 118
e 20 120
e 20 122
e 20 130
e 20 140
e 20 141
e 20 142
e 20 144
e 20 145
e 20 180
e 20 181
e 20 187
e 20 195
e 20 198
e 21 22
e 21 23
e 21 24
e 21 25
e 21 26
e 21 27
e 21 28
e 21 29
e 21 30
e 21 32
e 21 33
e 21 35
e 21 36
e 21 37
e 21 38
e 21 41
e 21 42
e 21 47
e 21 49
e 21 52
e 21 55
e 21 61
e 21 63
e 21 74
e 21 80
e 21 81
e 21 85
e 21 87
e 21 89
e 21 91
e 21 92
e 21 95
e 21 96
e 21 99
e 21 101
e 21 107
e 21 112
e 21 118
e 21 126
e 21 129
e 21 131
e 21 135
e 21 136
e 21 141
e 21 147
e 21 151
e 21 152
e 21 163
e 21 169
e 21 171
e 21 172
e 21 173
e 21 175
e 21 193
e 21 202
e 22 23
e 22 24
e 22 26
e 22 27
e 22 29
e 22 30
e 22 31
e 22 32
e 22 34
e 22 35
e 22 38
e 22 40
e 22 42
e 22 43
e 22 44
e 22 48
e 22 49
e 22 50
e 22 55
e 22 57
e 22 63
e 22 64
e 22 65
e 22 66
e 22 67
e 22 69
e 22 70
e 22 72
e 22 76
e 22 78
e 22 81
e 22 82
e 22 86
e 22 93
e 22 94
e 22 100
e 22 104
e 22 106
e 22 107
e 22 108
e 22 109
e 22 112
e 22 113
e 22 119
e 22 120
e 22 121
e 22 122
e 22 123
e 22 125
e 22 126
e 22 130
e 22 132
e 22 134
e 22 136
e 22 138
e 22 139
e 22 142
e 22 145
e 22 150
e 22 155
e 22 158
e 22 162
e 22 169
e 22 170
e 22 173
e 22 176
e 22 177
e 22 178
e 22 180
e 22 186
e 22 187
e 22 189
e 22 190
e 22 191
e 22 197
e 22 202
e 22 203
e 23 24
e 23 25
e 23 26
e 23 27
e 23 29
e 23 31
e 23 32
e 23 33
e 23 34
e 23 35
e 23 36
e 23 37
e 23 38
e 23 40
e 23 42
e 23 43
e 23 47
e 23 50
e 23 52
e 23 53
e 23 55
e 23 56
e 23 57
e 23 58
e 23 61
e 23 64
e 23 65
e 23 66
e 23 67
e 23 68
e 23 69
e 23 70
e 23 71
e 23 72
e 23 73
e 23 78
e 23 82
e 23 88
e 23 93
e 23 95
e 23 98
e 23 99
e 23 107
e 23 108
e 23 109
e 23 111
e 23 113
e 23 118
e 23 120
e 23 121
e 23 122
e 23 123
e 23 128
e 23 130
e 23 132
e 23 134
e 23 137
e 23 140
e 23 141
e 23 144
e 23 152
e 23 153
e 23 154
e 23 156
e 23 161
e 23 169
e 23 176
e 23 178
e 23 188
e 23 199
e 23 202
e 23 203
e 24 25
e 24 26
e 24 27
e 24 28
e 24 29
e 24 31
e 24 33
e 24 34
e 24 35
e 24 36
e 24 37
e 24 38
e 24 39
e 24 41
e 24 45
e 24 46
e 24 47
e 24 49
e 24 50
e 24 51
e 24 52
e 24 55
e 24 57
e 24 59
e 24 61
e 24 65
e 24 69
e 24 71
e 24 73
e 24 74
e 24 78
e 24 81
e 24 84
e 24 91
e 24 93
e 24 95
e 24 99
e 24 100
e 24 101
e 24 110
e 24 111
e 24 112
e 24 114
e 24 115
e 24 124
e 24 133
e 24 139
e 24 141
e 24 144
e 24 148
e 24 154
e 24 158
e 24 160
e 24 178
e 24 188
e 24 193
e 24 198
e 24 203
e 25 26
e 25 27
e 25 31
e 25 32
e 25 33
e 25 34
e 25 36
e 25 40
e 25 43
e 25 44
e 25 45
e 25 47
e 25 51
e 25 52
e 25 53
e 25 55
e 25 57
e 25 62
e 25 67
e 25 72
e 25 75
e 25 76
e 25 77
e 25 78
e 25 82
e 25 83
e 25 84
e 25 85
e 25 89
e 25 91
e 25 93
e 25 94
e 25 95
e 25 99
e 25 108
e 25 109
e 25 111
e 25 113
e 25 116
e 25 117
e 25 120
e 25 124
e 25 125
e 25 126
e 25 128
e 25 134
e 25 137
e 25 142
e 25 146
e 25 151
e 25 152
e 25 154
e 25 158
e 25 159
e 25 162
e 25 163
e 25 164
e 25 165
e 25 166
e 25 167
e 25 172
e 25 174
e 25 175
e 25 179
e 25 188
e 25 194
e 25 197
e 26 27
e 26 28
e 26 29
e 26 33
e 26 34
e 26 35
e 26 36
e 26 39
e 26 40
e 26 45
e 26 50
e 26 53
e 26 54
e 26 56
e 26 61
e 26 62
e 26 71
e 26 77
e 26 86
e 26 90
e 26 102
e 26 103
e 26 104
e 26 108
e 26 110
e 26 112
e 26 115
e 26 117
e 26 130
e 26 133
e 26 137
e 26 151
e 26 154
e 26 155
e 26 156
e 26 158
e 26 170
e 26 174
e 26 178
e 26 183
e 26 185
e 27 31
e 27 34
e 27 37
e 27 40
e 27 42
e 27 46
e 27 51
e 27 54
e 27 57
e 27 60
e 27 61
e 27 62
e 27 66
e 27 75
e 27 77
e 27 80
e 27 85
e 27 97
e 27 105
e 27 112
e 27 114
e 27 127
e 27 136
e 27 147
e 27 148
e 27 149
e 27 155
e 27 172
e 27 174
e 27 175
e 27 184
e 27 186
e 27 188
e 27 190
e 27 191
e 27 196
e 27 198
e 28 29
e 28 30
e 28 32
e 28 33
e 28 34
e 28 37
e 28 39
e 28 42
e 28 43
e 28 44
e 28 48
e 28 50
e 28 51
e 28 52
e 28 53
e 28 69
e 28 70
e 28 72
e 28 73
e 28 84
e 28 97
e 28 98
e 28 100
e 28 120
e 28 124
e 28 135
e 28 155
e 28 186
e 28 195
e 29 30
e 29 32
e 29 33
e 29 36
e 29 38
e 29 39
e 29 42
e 29 43
e 29 44
e 29 50
e 29 65
e 29 81
e 29 85
e 29 93
e 29 97
e 29 101
e 29 102
e 29 105
e 29 119
e 29 121
e 29 122
e 29 127
e 29 143
e 29 145
e 29 152
e 29 168
e 29 174
e 29 179
e 29 191
e 29 193
e 30 31
e 30 32
e 30 33
e 30 35
e 30 36
e 30 37
e 30 38
e 30 39
e 30 43
e 30 44
e 30 45
e 30 47
e 30 51
e 30 52
e 30 53
e 30 54
e 30 55
e 30 59
e 30 60
e 30 61
e 30 63
e 30 64
e 30 65
e 30 69
e 30 70
e 30 72
e 30 73
e 30 75
e 30 77
e 30 79
e 30 81
e 30 84
e 30 85
e 30 86
e 30 87
e 30 89
e 30 90
e 30 95
e 30 101
e 30 104
e 30 105
e 30 111
e 30 117
e 30 118
e 30 121
e 30 124
e 30 127
e 30 129
e 30 132
e 30 133
e 30 136
e 30 142
e 30 148
e 30 150
e 30 154
e 30 156
e 30 160
e 30 161
e 30 163
e 30 169
e 30 171
e 30 179
e 30 180
e 30 189
e 30 190
e 30 197
e 31 32
e 31 33
e 31 34
e 31 37
e 31 39
e 31 42
e 31 44
e 31 45
e 31 49
e 31 52
e 31 55
e 31 57
e 31 76
e 31 78
e 31 79
e 31 83
e 31 85
e 31 86
e 31 88
e 31 92
e 31 95
e 31 99
e 31 109
e 31 113
e 31 117
e 31 118
e 31 127
e 31 134
e 31 140
e 31 146
e 31 151
e 31 156
e 31 158
e 31 163
e 31 166
e 31 169
e 31 171
e 31 173
e 31 175
e 31 179
e 31 190
e 31 192
e 31 193
e 31 197
e 32 33
e 32 36
e 32 37
e 32 38
e 32 40
e 32 43
e 32 44
e 32 45
e 32 48
e 32 51
e 32 57
e 32 65
e 32 66
e 32 68
e 32 70
e 32 72
e 32 73
e 32 74
e 32 75
e 32 79
e 32 94
e 32 101
e 32 104
e 32 110
e 32 111
e 32 120
e 32 143
e 32 146
e 32 156
e 32 159
e 32 169
e 32 176
e 32 190
e 32 199
e 32 202
e 33 37
e 33 39
e 33 40
e 33 41
e 33 44
e 33 49
e 33 55
e 33 58
e 33 63
e 33 67
e 33 68
e 33 75
e 33 77
e 33 80
e 33 83
e 33 98
e 33 103
e 33 106
e 33 109
e 33 113
e 33 117
e 33 123
e 33 128
e 33 129
e 33 133
e 33 141
e 33 142
e 33 146
e 33 149
e 33 152
e 33 157
e 33 163
e 33 167
e 33 168
e 33 170
e 33 174
e 33 178
e 33 187
e 33 199
e 33 200
e 34 36
e 34 38
e 34 40
e 34 41
e 34 43
e 34 44
e 34 46
e 34 48
e 34 51
e 34 58
e 34 62
e 34 67
e 34 68
e 34 73
e 34 80
e 34 81
e 34 82
e 34 83
e 34 88
e 34 92
e 34 96
e 34 100
e 34 101
e 34 105
e 34 106
e 34 110
e 34 153
e 34 157
e 34 173
e 34 185
e 34 186
e 34 193
e 35 36
e 35 38
e 35 43
e 35 45
e 35 47
e 35 50
e 35 57
e 35 58
e 35 66
e 35 68
e 35 69
e 35 70
e 35 72
e 35 83
e 35 84
e 35 88
e 35 91
e 35 93
e 35 107
e 35 110
e 35 117
e 35 121
e 35 123
e 35 143
e 35 146
e 35 147
e 35 156
e 35 162
e 35 163
e 35 182
e 35 199
e 35 200
e 35 201
e 36 37
e 36 45
e 36 51
e 36 53
e 36 59
e 36 63
e 36 68
e 36 72
e 36 75
e 36 76
e 36 93
e 36 97
e 36 99
e 36 100
e 36 115
e 36 118
e 36 121
e 36 127
e 36 130
e 36 132
e 36 135
e 36 138
e 36 155
e 36 161
e 36 170
e 36 183
e 36 184
e 36 189
e 36 196
e 37 39
e 37 43
e 37 46
e 37 47
e 37 52
e 37 54
e 37 55
e 37 56
e 37 63
e 37 64
e 37 65
e 37 66
e 37 72
e 37 76
e 37 78
e 37 82
e 37 88
e 37 94
e 37 97
e 37 102
e 37 107
e 37 119
e 37 124
e 37 132
e 37 134
e 37 139
e 37 140
e 37 143
e 37 144
e 37 145
e 37 147
e 37 148
e 37 150
e 37 154
e 37 158
e 37 162
e 37 164
e 37 165
e 37 173
e 37 189
e 37 197
e 38 44
e 38 45
e 38 48
e 38 49
e 38 51
e 38 53
e 38 54
e 38 58
e 38 63
e 38 66
e 38 71
e 38 73
e 38 78
e 38 98
e 38 112
e 38 113
e 38 114
e 38 118
e 38 124
e 38 125
e 38 134
e 38 136
e 38 137
e 38 143
e 38 148
e 38 149
e 38 151
e 38 163
e 38 165
e 38 168
e 38 176
e 38 181
e 39 41
e 39 46
e 39 48
e 39 56
e 39 58
e 39 61
e 39 68
e 39 69
e 39 88
e 39 91
e 39 95
e 39 97
e 39 111
e 39 117
e 39 127
e 39 128
e 39 143
e 39 150
e 39 153
e 39 159
e 39 162
e 39 166
e 39 167
e 39 172
e 39 176
e 39 181
e 39 194
e 39 198
e 39 199
e 39 200
e 39 201
e 39 202
e 40 41
e 40 42
e 40 49
e 40 50
e 40 54
e 40 55
e 40 56
e 40 57
e 40 59
e 40 62
e 40 73
e 40 76
e 40 79
e 40 83
e 40 87
e 40 98
e 40 99
e 40 101
e 40 102
e 40 105
e 40 108
e 40 120
e 40 135
e 40 137
e 40 149
e 40 190
e 41 44
e 41 47
e 41 48
e 41 61
e 41 62
e 41 67
e 41 69
e 41 71
e 41 74
e 41 81
e 41 83
e 41 90
e 41 92
e 41 96
e 41 102
e 41 104
e 41 105
e 41 106
e 41 109
e 41 116
e 41 135
e 41 136
e 41 147
e 41 166
e 41 175
e 41 176
e 41 194
e 41 195
e 41 196
e 42 46
e 42 48
e 42 62
e 42 63
e 42 65
e 42 78
e 42 84
e 42 91
e 42 99
e 42 113
e 42 114
e 42 127
e 42 139
e 42 142
e 42 144
e 42 155
e 42 159
e 42 172
e 42 187
e 42 196
e 42 198
e 43 44
e 43 45
e 43 47
e 43 53
e 43 54
e 43 59
e 43 60
e 43 61
e 43 67
e 43 69
e 43 70
e 43 72
e 43 75
e 43 80
e 43 96
e 43 101
e 43 103
e 43 107
e 43 109
e 43 118
e 43 119
e 43 120
e 43 124
e 43 131
e 43 133
e 43 139
e 43 141
e 43 142
e 43 145
e 43 147
e 43 156
e 43 160
e 43 162
e 43 167
e 43 171
e 43 182
e 43 190
e 44 45
e 44 48
e 44 53
e 44 56
e 44 62
e 44 65
e 44 68
e 44 74
e 44 83
e 44 84
e 44 90
e 44 91
e 44 92
e 44 100
e 44 113
e 44 116
e 44 131
e 44 134
e 44 152
e 44 159
e 44 163
e 44 175
e 44 180
e 44 185
e 44 186
e 44 195
e 45 51
e 45 58
e 45 59
e 45 66
e 45 72
e 45 73
e 45 74
e 45 76
e 45 79
e 45 82
e 45 86
e 45 88
e 45 91
e 45 103
e 45 107
e 45 112
e 45 116
e 45 123
e 45 124
e 45 127
e 45 134
e 45 140
e 45 142
e 45 144
e 45 148
e 45 150
e 45 153
e 45 166
e 45 170
e 45 174
e 45 182
e 45 190
e 45 193
e 45 196
e 46 49
e 46 51
e 46 53
e 46 58
e 46 86
e 46 94
e 46 108
e 46 122
e 46 129
e 46 135
e 46 169
e 46 176
e 46 184
e 46 189
e 46 191
e 46 199
e 47 49
e 47 50
e 47 52
e 47 53
e 47 54
e 47 56
e 47 59
e 47 60
e 47 72
e 47 83
e 47 88
e 47 97
e 47 98
e 47 103
e 47 119
e 47 126
e 47 132
e 47 150
e 47 162
e 47 167
e 47 176
e 47 189
e 47 199
e 48 56
e 48 62
e 48 68
e 48 74
e 48 75
e 48 77
e 48 83
e 48 86
e 48 87
e 48 108
e 48 118
e 48 119
e 48 126
e 48 128
e 48 131
e 48 138
e 48 146
e 48 169
e 48 187
e 48 202
e 49 64
e 49 65
e 49 66
e 49 67
e 49 74
e 49 93
e 49 94
e 49 95
e 49 117
e 49 120
e 49 135
e 49 138
e 49 144
e 49 147
e 49 172
e 49 173
e 49 174
e 49 184
e 49 195
e 49 198
e 50 52
e 50 56
e 50 57
e 50 58
e 50 59
e 50 64
e 50 70
e 50 71
e 50 74
e 50 79
e 50 80
e 50 81
e 50 84
e 50 94
e 50 102
e 50 114
e 50 119
e 50 121
e 50 125
e 50 130
e 50 132
e 50 137
e 50 142
e 50 144
e 50 152
e 50 157
e 50 162
e 50 171
e 50 175
e 50 181
e 50 191
e 50 199
e 50 202
e 50 203
e 51 56
e 51 60
e 51 62
e 51 63
e 51 70
e 51 82
e 51 85
e 51 100
e 51 109
e 51 119
e 51 121
e 51 122
e 51 137
e 51 138
e 51 146
e 51 149
e 51 202
e 52 58
e 52 66
e 52 79
e 52 84
e 52 86
e 52 90
e 52 92
e 52 93
e 52 102
e 52 107
e 52 110
e 52 116
e 52 134
e 52 145
e 52 170
e 52 173
e 52 174
e 52 193
e 53 58
e 53 60
e 53 66
e 53 67
e 53 68
e 53 72
e 53 76
e 53 77
e 53 80
e 53 82
e 53 83
e 53 92
e 53 102
e 53 105
e 53 115
e 53 120
e 53 123
e 53 138
e 53 140
e 53 154
e 53 173
e 53 175
e 53 180
e 53 202
e 54 56
e 54 59
e 54 60
e 54 68
e 54 81
e 54 84
e 54 90
e 54 93
e 54 101
e 54 102
e 54 105
e 54 107
e 54 109
e 54 119
e 54 148
e 54 149
e 54 153
e 54 155
e 54 164
e 54 168
e 54 169
e 54 172
e 55 57
e 55 59
e 55 60
e 55 61
e 55 67
e 55 70
e 55 96
e 55 106
e 55 112
e 55 113
e 55 122
e 55 124
e 55 126
e 55 133
e 55 141
e 55 145
e 55 157
e 55 161
e 55 170
e 55 180
e 55 187
e 55 188
e 56 78
e 56 81
e 56 89
e 56 104
e 56 118
e 56 120
e 56 126
e 56 135
e 56 152
e 56 172
e 56 174
e 56 179
e 56 188
e 57 60
e 57 64
e 57 65
e 57 77
e 57 90
e 57 93
e 57 100
e 57 105
e 57 106
e 57 109
e 57 113
e 57 116
e 57 123
e 57 129
e 57 131
e 57 136
e 57 157
e 57 162
e 57 190
e 57 195
e 57 201
e 58 60
e 58 61
e 58 63
e 58 64
e 58 73
e 58 79
e 58 91
e 58 95
e 58 108
e 58 115
e 58 131
e 58 145
e 58 158
e 58 164
e 58 176
e 58 178
e 58 195
e 59 62
e 59 71
e 59 78
e 59 87
e 59 88
e 59 92
e 59 110
e 59 114
e 59 139
e 59 144
e 59 145
e 59 182
e 59 183
e 59 197
e 60 62
e 60 66
e 60 67
e 60 70
e 60 71
e 60 85
e 60 98
e 60 104
e 60 110
e 60 136
e 60 139
e 60 143
e 60 152
e 60 186
e 60 196
e 61 73
e 61 76
e 61 77
e 61 81
e 61 87
e 61 108
e 61 118
e 61 124
e 61 127
e 61 132
e 61 143
e 61 148
e 61 151
e 61 174
e 61 183
e 62 71
e 62 73
e 62 74
e 62 76
e 62 79
e 62 80
e 62 84
e 62 85
e 62 87
e 62 88
e 62 89
e 62 95
e 62 106
e 62 114
e 62 116
e 62 118
e 62 119
e 62 132
e 62 135
e 62 138
e 62 148
e 62 157
e 62 166
e 62 182
e 62 185
e 62 197
e 63 65
e 63 69
e 63 75
e 63 77
e 63 80
e 63 84
e 63 86
e 63 99
e 63 103
e 63 117
e 63 120
e 63 123
e 63 129
e 63 130
e 63 137
e 63 155
e 63 161
e 63 190
e 63 200
e 64 66
e 64 90
e 64 94
e 64 95
e 64 98
e 64 101
e 64 104
e 64 106
e 64 111
e 64 126
e 64 153
e 64 172
e 64 191
e 64 195
e 65 68
e 65 69
e 65 79
e 65 87
e 65 96
e 65 103
e 65 107
e 65 110
e 65 111
e 65 115
e 65 124
e 65 125
e 65 136
e 65 152
e 65 171
e 65 182
e 65 183
e 65 201
e 66 97
e 66 101
e 66 102
e 66 128
e 66 130
e 66 157
e 66 175
e 66 176
e 66 181
e 66 182
e 67 89
e 67 101
e 67 102
e 67 121
e 67 133
e 67 143
e 67 159
e 67 161
e 67 170
e 67 184
e 67 186
e 67 188
e 67 194
e 67 196
e 68 71
e 68 78
e 68 89
e 68 100
e 68 111
e 68 115
e 68 122
e 68 124
e 68 126
e 68 136
e 68 140
e 68 156
e 68 162
e 68 177
e 68 184
e 68 185
e 68 194
e 68 196
e 68 203
e 69 71
e 69 74
e 69 76
e 69 78
e 69 81
e 69 96
e 69 106
e 69 132
e 69 138
e 69 141
e 69 155
e 69 195
e 70 72
e 70 77
e 70 100
e 70 125
e 70 134
e 70 141
e 70 148
e 70 153
e 70 159
e 70 169
e 71 74
e 71 79
e 71 83
e 71 95
e 71 97
e 71 100
e 71 107
e 71 116
e 71 145
e 71 152
e 71 153
e 71 155
e 71 158
e 71 164
e 71 167
e 71 196
e 71 197
e 71 200
e 72 77
e 72 80
e 72 81
e 72 101
e 72 104
e 72 164
e 72 193
e 72 194
e 72 200
e 72 202
e 73 85
e 73 87
e 73 92
e 73 94
e 73 151
e 73 155
e 73 160
e 73 161
e 73 167
e 73 168
e 73 169
e 73 175
e 73 184
e 73 193
e 73 197
e 73 201
e 74 75
e 74 88
e 74 93
e 74 105
e 74 134
e 74 176
e 75 79
e 75 86
e 75 94
e 75 98
e 75 105
e 75 125
e 75 132
e 75 135
e 75 140
e 75 154
e 75 175
e 75 179
e 75 185
e 75 190
e 75 191
e 76 78
e 76 86
e 76 88
e 76 89
e 76 92
e 76 94
e 76 102
e 76 111
e 76 115
e 76 129
e 76 131
e 76 155
e 77 82
e 77 90
e 77 96
e 77 113
e 77 130
e 77 131
e 77 135
e 77 149
e 77 186
e 77 189
e 77 193
e 77 201
e 78 100
e 78 102
e 78 103
e 78 105
e 78 110
e 78 117
e 78 121
e 78 128
e 78 138
e 78 140
e 78 147
e 78 168
e 78 181
e 78 196
e 79 80
e 79 86
e 79 89
e 79 95
e 79 99
e 79 109
e 79 164
e 79 165
e 79 178
e 80 82
e 80 87
e 80 90
e 80 95
e 80 147
e 80 157
e 80 181
e 80 191
e 80 198
e 81 85
e 81 87
e 81 96
e 81 97
e 81 109
e 81 112
e 81 132
e 81 134
e 81 155
e 81 177
e 81 190
e 81 195
e 82 84
e 82 92
e 82 97
e 82 104
e 82 107
e 82 114
e 82 119
e 82 124
e 82 134
e 82 147
e 82 159
e 82 203
e 83 85
e 83 89
e 83 112
e 83 167
e 83 173
e 84 93
e 84 96
e 84 97
e 84 99
e 84 100
e 84 103
e 84 114
e 84 119
e 84 122
e 84 145
e 84 149
e 84 151
e 84 162
e 84 182
e 84 187
e 84 188
e 84 192
e 84 193
e 85 86
e 85 94
e 85 116
e 85 134
e 85 153
e 85 163
e 85 194
e 85 197
e 85 201
e 85 202
e 86 87
e 86 92
e 86 96
e 86 104
e 86 108
e 86 109
e 86 115
e 86 127
e 86 129
e 86 146
e 86 155
e 86 158
e 86 166
e 86 173
e 87 103
e 87 104
e 87 117
e 87 140
e 87 142
e 87 144
e 87 165
e 87 186
e 87 189
e 88 102
e 88 103
e 88 147
e 88 160
e 88 168
e 88 181
e 88 182
e 88 196
e 89 91
e 89 110
e 89 115
e 89 123
e 89 138
e 89 143
e 89 147
e 89 159
e 89 165
e 89 170
e 89 177
e 89 192
e 89 195
e 90 98
e 90 100
e 90 101
e 90 125
e 90 143
e 90 164
e 90 165
e 90 171
e 90 172
e 90 183
e 90 185
e 91 93
e 91 102
e 91 105
e 91 106
e 91 111
e 91 113
e 91 121
e 91 123
e 91 125
e 91 151
e 91 168
e 91 172
e 91 184
e 91 185
e 91 187
e 91 195
e 91 200
e 91 201
e 92 104
e 92 108
e 92 116
e 92 127
e 92 165
e 92 170
e 92 172
e 92 178
e 93 106
e 93 114
e 93 122
e 93 133
e 93 144
e 93 153
e 93 160
e 93 183
e 93 199
e 94 108
e 94 115
e 94 119
e 94 137
e 94 142
e 94 150
e 94 165
e 95 131
e 95 136
e 95 137
e 95 177
e 95 187
e 95 203
e 96 100
e 96 131
e 96 156
e 96 158
e 96 166
e 96 169
e 96 182
e 96 197
e 96 201
e 97 111
e 97 123
e 97 146
e 97 147
e 97 169
e 97 181
e 97 191
e 97 197
e 98 99
e 98 103
e 98 138
e 98 139
e 98 148
e 98 151
e 98 163
e 98 164
e 98 166
e 98 169
e 98 179
e 98 181
e 99 106
e 99 110
e 99 114
e 99 117
e 99 118
e 99 123
e 99 125
e 99 128
e 99 135
e 99 136
e 99 150
e 99 153
e 99 154
e 99 156
e 99 174
e 99 192
e 100 107
e 100 116
e 100 143
e 100 154
e 100 156
e 100 166
e 101 113
e 101 116
e 101 122
e 101 123
e 101 129
e 101 134
e 101 135
e 101 139
e 101 140
e 101 145
e 101 153
e 101 157
e 101 174
e 101 180
e 101 192
e 102 112
e 102 128
e 102 137
e 102 140
e 102 200
e 103 110
e 103 121
e 103 140
e 103 157
e 103 168
e 104 121
e 104 132
e 104 133
e 104 163
e 104 189
e 105 107
e 105 122
e 105 154
e 105 157
e 105 182
e 105 199
e 106 123
e 106 178
e 106 182
e 107 109
e 107 112
e 107 127
e 107 130
e 107 161
e 107 189
e 107 192
e 107 198
e 107 203
e 108 112
e 108 129
e 108 136
e 108 146
e 108 177
e 109 115
e 109 121
e 109 125
e 109 160
e 109 161
e 109 177
e 109 179
e 109 183
e 109 192
e 109 196
e 109 197
e 109 202
e 110 115
e 110 118
e 110 128
e 110 138
e 110 160
e 111 129
e 111 151
e 111 152
e 111 174
e 112 133
e 112 135
e 112 150
e 112 153
e 112 168
e 112 172
e 112 178
e 112 186
e 112 190
e 113 120
e 113 130
e 113 180
e 114 119
e 114 126
e 114 185
e 115 126
e 115 161
e 115 177
e 115 189
e 115 197
e 115 202
e 116 121
e 116 131
e 116 155
e 116 167
e 116 184
e 116 188
e 116 193
e 117 118
e 117 133
e 117 139
e 117 162
e 117 192
e 118 125
e 118 126
e 118 141
e 118 147
e 118 150
e 118 161
e 118 168
e 118 171
e 118 181
e 118 184
e 118 186
e 118 195
e 119 128
e 119 144
e 119 151
e 119 157
e 119 162
e 119 165
e 119 168
e 119 175
e 119 195
e 120 124
e 120 141
e 120 146
e 120 164
e 120 176
e 120 194
e 121 127
e 121 133
e 121 137
e 121 178
e 121 187
e 121 196
e 122 125
e 122 155
e 122 172
e 122 173
e 123 125
e 123 131
e 123 154
e 123 165
e 123 172
e 124 127
e 124 130
e 124 135
e 124 145
e 124 152
e 124 188
e 124 193
e 125 195
e 126 128
e 126 149
e 126 150
e 126 159
e 126 167
e 126 170
e 126 183
e 126 185
e 126 186
e 126 191
e 127 131
e 127 142
e 127 175
e 128 130
e 128 191
e 129 138
e 129 142
e 129 146
e 129 157
e 129 164
e 129 165
e 129 172
e 130 132
e 130 141
e 130 160
e 130 170
e 130 183
e 130 193
e 131 139
e 131 144
e 131 147
e 131 163
e 131 167
e 131 185
e 132 140
e 132 154
e 132 161
e 132 189
e 132 192
e 133 138
e 133 148
e 133 201
e 134 141
e 134 146
e 134 150
e 134 158
e 134 160
e 134 165
e 135 141
e 135 157
e 135 160
e 135 164
e 135 170
e 136 139
e 136 142
e 136 158
e 136 164
e 136 165
e 136 198
e 137 183
e 137 201
e 138 156
e 138 181
e 138 203
e 139 152
e 139 156
e 139 175
e 139 179
e 139 194
e 140 167
e 141 149
e 141 150
e 141 162
e 141 165
e 141 185
e 141 194
e 142 158
e 142 166
e 142 171
e 143 149
e 143 192
e 143 193
e 144 196
e 144 198
e 145 184
e 145 185
e 145 203
e 146 157
e 146 173
e 146 180
e 146 181
e 146 183
e 146 186
e 146 191
e 147 176
e 148 149
e 148 178
e 149 158
e 149 166
e 149 177
e 149 190
e 149 198
e 149 203
e 150 171
e 150 177
e 150 200
e 150 201
e 151 173
e 152 160
e 152 179
e 152 182
e 152 188
e 152 190
e 152 196
e 153 154
e 154 159
e 155 183
e 155 192
e 155 199
e 156 176
e 156 194
e 158 162
e 159 163
e 159 174
e 159 183
e 161 180
e 162 179
e 162 200
e 164 166
e 165 175
e 165 183
e 166 169
e 166 170
e 166 177
e 167 170
e 167 171
e 167 173
e 168 173
e 168 184
e 169 179
e 169 180
e 171 186
e 171 187
e 172 188
e 172 198
e 173 174
e 173 200
e 174 177
e 174 188
e 175 179
e 176 188
e 176 189
e 177 197
e 178 194
e 178 203
e 179 190
e 180 203
e 182 202
e 183 194
e 184 188
e 185 199
e 187 191
e 187 192
e 187 198
e 188 199
e 189 194
e 191 192
e 191 200
e 194 198
